NAME : ct_5_n_3_k10_t_90
COMMENT : (ct_5_n_3_k10_t_90, Min no of trucks: 3, Optimal value: 1000000000, Split: No)
TYPE : SDVRP
DIMENSION : 6
EDGE_WEIGHT_TYPE : EUC_2D
CAPACITY : 10
NODE_COORD_SECTION
1 100 100
2 116 147
3 162 21
4 30 50
5 49 136
6 135 32
DEMAND_SECTION
1 0
2 5.9
3 7.3
4 4.5
5 3.9
6 5.4
DEPOT_SECTION
 1
EOF